(set-info :source |printed by MathSAT|)
(declare-fun call_synapse.ite14 () Int)
(declare-fun param_e_s2 () Bool)
(declare-fun call_synapse.ite16 () Int)
(declare-fun call_synapse.ite11 () Int)
(declare-fun _OK_ () Bool)
(declare-fun call_synapse.flby3 () Int)
(declare-fun call_synapse.ite13 () Int)
(declare-fun call_synapse.ite2 () Int)
(declare-fun call_synapse.invalid_s () Int)
(declare-fun param_e_s1 () Bool)
(declare-fun call_excludes3.excludes () Bool)
(declare-fun call_Sofar.flby () Bool)
(declare-fun call_synapse.garde_s1 () Bool)
(declare-fun call_synapse.flby4 () Int)
(declare-fun call_synapse.ite9 () Int)
(declare-fun call_synapse.flby () Int)
(declare-fun invalid_s () Int)
(declare-fun call_synapse.ite17 () Int)
(declare-fun param_e_s3 () Bool)
(declare-fun call_synapse.ite () Int)
(declare-fun call_synapse.ite8 () Int)
(declare-fun param_init_invalid_s () Int)
(declare-fun call_synapse.ite4 () Int)
(declare-fun call_synapse.ite7 () Int)
(declare-fun call_synapse.dirty_s () Int)
(declare-fun call_synapse.ite6 () Int)
(declare-fun call_synapse.ite18 () Int)
(declare-fun call_synapse.garde_s2 () Bool)
(declare-fun call_synapse.ite10 () Int)
(declare-fun call_First.First () Int)
(declare-fun call_synapse.mem_init_s () Int)
(declare-fun valid_s () Int)
(declare-fun mem_init_s () Int)
(declare-fun call_Sofar.Sofar () Bool)
(declare-fun call_synapse.ite5 () Int)
(declare-fun call_synapse.flby2 () Int)
(declare-fun call_synapse.valid_s () Int)
(declare-fun call_synapse.garde_s3 () Bool)
(declare-fun env () Bool)
(declare-fun call_synapse.ite3 () Int)
(declare-fun call_First.flby () Int)
(declare-fun call_synapse.ite12 () Int)
(declare-fun call_synapse.ite15 () Int)
(declare-fun dirty_s () Int)
(define-fun .def_594 () Bool (= call_First.flby call_First.First))
(define-fun .def_592 () Bool (= call_Sofar.flby call_Sofar.Sofar))
(define-fun .def_587 () Bool (and param_e_s3 param_e_s2))
(define-fun .def_585 () Bool (and param_e_s3 param_e_s1))
(define-fun .def_584 () Bool (and param_e_s1 param_e_s2))
(define-fun .def_586 () Bool (or .def_584 .def_585))
(define-fun .def_588 () Bool (or .def_586 .def_587))
(define-fun .def_589 () Bool (not .def_588))
(define-fun .def_590 () Bool (= call_excludes3.excludes .def_589))
(define-fun .def_582 () Bool (= call_synapse.flby call_synapse.mem_init_s))
(define-fun .def_580 () Bool (= call_synapse.flby4 call_synapse.dirty_s))
(define-fun .def_578 () Bool (= call_synapse.flby3 call_synapse.valid_s))
(define-fun .def_576 () Bool (= call_synapse.flby2 call_synapse.invalid_s))
(define-fun .def_572 () Bool (= call_synapse.ite16 call_synapse.ite17))
(define-fun .def_573 () Bool (or param_e_s2 .def_572))
(define-fun .def_569 () Bool (= call_synapse.ite14 call_synapse.ite17))
(define-fun .def_560 () Bool (not param_e_s2))
(define-fun .def_570 () Bool (or .def_560 .def_569))
(define-fun .def_566 () Bool (= call_synapse.ite10 call_synapse.ite11))
(define-fun .def_567 () Bool (or param_e_s2 .def_566))
(define-fun .def_563 () Bool (= call_synapse.ite8 call_synapse.ite11))
(define-fun .def_564 () Bool (or .def_560 .def_563))
(define-fun .def_559 () Bool (= call_synapse.ite5 call_synapse.ite2))
(define-fun .def_561 () Bool (or .def_559 .def_560))
(define-fun .def_555 () Bool (= call_synapse.ite4 call_synapse.ite5))
(define-fun .def_557 () Bool (or .def_555 param_e_s2))
(define-fun .def_562 () Bool (and .def_557 .def_561))
(define-fun .def_565 () Bool (and .def_562 .def_564))
(define-fun .def_568 () Bool (and .def_565 .def_567))
(define-fun .def_571 () Bool (and .def_568 .def_570))
(define-fun .def_574 () Bool (and .def_571 .def_573))
(define-fun .def_551 () Bool (= call_synapse.ite18 call_synapse.ite17))
(define-fun .def_552 () Bool (or param_e_s1 .def_551))
(define-fun .def_547 () Bool (= call_synapse.ite13 call_synapse.ite18))
(define-fun .def_534 () Bool (not param_e_s1))
(define-fun .def_548 () Bool (or .def_534 .def_547))
(define-fun .def_543 () Bool (= call_synapse.ite12 call_synapse.ite11))
(define-fun .def_544 () Bool (or param_e_s1 .def_543))
(define-fun .def_539 () Bool (= call_synapse.ite7 call_synapse.ite12))
(define-fun .def_540 () Bool (or .def_534 .def_539))
(define-fun .def_533 () Bool (= call_synapse.ite6 call_synapse.ite))
(define-fun .def_535 () Bool (or .def_533 .def_534))
(define-fun .def_529 () Bool (= call_synapse.ite6 call_synapse.ite5))
(define-fun .def_531 () Bool (or .def_529 param_e_s1))
(define-fun .def_536 () Bool (and .def_531 .def_535))
(define-fun .def_541 () Bool (and .def_536 .def_540))
(define-fun .def_545 () Bool (and .def_541 .def_544))
(define-fun .def_549 () Bool (and .def_545 .def_548))
(define-fun .def_553 () Bool (and .def_549 .def_552))
(define-fun .def_525 () Bool (= env call_Sofar.Sofar))
(define-fun .def_522 () Bool (= call_synapse.mem_init_s mem_init_s))
(define-fun .def_519 () Bool (= dirty_s call_synapse.dirty_s))
(define-fun .def_516 () Bool (= valid_s call_synapse.valid_s))
(define-fun .def_513 () Bool (= invalid_s call_synapse.invalid_s))
(define-fun .def_505 () Int (* (- 1) call_First.First))
(define-fun .def_506 () Int (+ dirty_s .def_505))
(define-fun .def_507 () Int (+ valid_s .def_506))
(define-fun .def_508 () Int (+ invalid_s .def_507))
(define-fun .def_509 () Bool (= .def_508 0))
(define-fun .def_494 () Bool (not env))
(define-fun .def_510 () Bool (or .def_494 .def_509))
(define-fun .def_511 () Bool (= _OK_ .def_510))
(define-fun .def_514 () Bool (and .def_511 .def_513))
(define-fun .def_517 () Bool (and .def_514 .def_516))
(define-fun .def_520 () Bool (and .def_517 .def_519))
(define-fun .def_523 () Bool (and .def_520 .def_522))
(define-fun .def_526 () Bool (and .def_523 .def_525))
(define-fun .def_554 () Bool (and .def_526 .def_553))
(define-fun .def_575 () Bool (and .def_554 .def_574))
(define-fun .def_577 () Bool (and .def_575 .def_576))
(define-fun .def_579 () Bool (and .def_577 .def_578))
(define-fun .def_581 () Bool (and .def_579 .def_580))
(define-fun .def_583 () Bool (and .def_581 .def_582))
(define-fun .def_591 () Bool (and .def_583 .def_590))
(define-fun .def_593 () Bool (and .def_591 .def_592))
(define-fun .def_595 () Bool (and .def_593 .def_594))
(define-fun .def_490 () Bool (= param_init_invalid_s call_First.flby))
(define-fun .def_483 () Bool (<= 0 param_init_invalid_s))
(define-fun .def_485 () Bool (and .def_483 call_excludes3.excludes))
(define-fun .def_487 () Bool (= .def_485 call_Sofar.flby))
(define-fun .def_481 () Bool (= call_synapse.flby4 0))
(define-fun .def_478 () Bool (= call_synapse.flby3 0))
(define-fun .def_475 () Bool (= call_synapse.flby2 call_synapse.mem_init_s))
(define-fun .def_471 () Bool (= param_init_invalid_s call_synapse.flby))
(define-fun .def_465 () Bool (= call_synapse.ite9 0))
(define-fun .def_463 () Bool (not call_synapse.garde_s3))
(define-fun .def_466 () Bool (or .def_463 .def_465))
(define-fun .def_461 () Bool (= call_synapse.ite15 1))
(define-fun .def_464 () Bool (or .def_461 .def_463))
(define-fun .def_467 () Bool (and .def_464 .def_466))
(define-fun .def_457 () Bool (= call_synapse.ite8 0))
(define-fun .def_454 () Bool (not call_synapse.garde_s2))
(define-fun .def_458 () Bool (or .def_454 .def_457))
(define-fun .def_452 () Bool (= call_synapse.ite14 1))
(define-fun .def_455 () Bool (or .def_452 .def_454))
(define-fun .def_459 () Bool (and .def_455 .def_458))
(define-fun .def_448 () Bool (= call_synapse.ite13 0))
(define-fun .def_446 () Bool (not call_synapse.garde_s1))
(define-fun .def_449 () Bool (or .def_446 .def_448))
(define-fun .def_442 () Bool (= call_synapse.ite15 call_synapse.ite16))
(define-fun .def_433 () Bool (not param_e_s3))
(define-fun .def_443 () Bool (or .def_433 .def_442))
(define-fun .def_437 () Bool (= call_synapse.ite3 call_synapse.ite4))
(define-fun .def_438 () Bool (or .def_433 .def_437))
(define-fun .def_431 () Bool (= call_synapse.ite9 call_synapse.ite10))
(define-fun .def_434 () Bool (or .def_431 .def_433))
(define-fun .def_439 () Bool (and .def_434 .def_438))
(define-fun .def_444 () Bool (and .def_439 .def_443))
(define-fun .def_450 () Bool (and .def_444 .def_449))
(define-fun .def_460 () Bool (and .def_450 .def_459))
(define-fun .def_468 () Bool (and .def_460 .def_467))
(define-fun .def_472 () Bool (and .def_468 .def_471))
(define-fun .def_476 () Bool (and .def_472 .def_475))
(define-fun .def_479 () Bool (and .def_476 .def_478))
(define-fun .def_482 () Bool (and .def_479 .def_481))
(define-fun .def_488 () Bool (and .def_482 .def_487))
(define-fun .def_491 () Bool (and .def_488 .def_490))
(define-fun .def_596 () Bool (and .def_491 .def_595))
(assert .def_596)
